Version identifier: 12.10.0.0 | 2019-11-26 | 843d4de
CPXPARAM_WorkMem                                 28672
Tried aggregator 2 times.
Aggregator did 40 substitutions.
Reduced MIP has 184 rows, 240 columns, and 888 nonzeros.
Reduced MIP has 240 binaries, 0 generals, 0 SOSs, and 0 indicators.
Presolve time = 0,00 sec. (0,82 ticks)
Found incumbent of value 160,000000 after 0,00 sec. (1,59 ticks)
Probing time = 0,00 sec. (0,28 ticks)
Tried aggregator 1 time.
Detecting symmetries...
MIP Presolve eliminated 32 rows and 0 columns.
MIP Presolve added 64 rows and 0 columns.
Reduced MIP has 216 rows, 240 columns, and 920 nonzeros.
Reduced MIP has 240 binaries, 0 generals, 0 SOSs, and 0 indicators.
Presolve time = 0,00 sec. (1,10 ticks)
Probing time = 0,00 sec. (0,28 ticks)
Clique table members: 588.
MIP emphasis: balance optimality and feasibility.
MIP search method: dynamic search.
Parallel mode: deterministic, using up to 16 threads.
Root relaxation solution time = 0,00 sec. (0,62 ticks)

        Nodes                                         Cuts/
   Node  Left     Objective  IInf  Best Integer    Best Bound    ItCnt     Gap

*     0+    0                          160,0000        0,0000           100,00%
*     0+    0                          101,0000        0,0000           100,00%
*     0+    0                           97,0000        0,0000           100,00%
      0     0       40,0000   122       97,0000       40,0000       79   58,76%
      0     0       40,0000   122       97,0000     Cuts: 122      152   58,76%
*     0+    0                           96,0000       40,0000            58,33%
      0     0       40,0000   122       96,0000     Cuts: 151      235   58,33%
*     0+    0                           93,0000       40,0000            56,99%
*     0+    0                           91,0000       40,0000            56,04%
*     0+    0                           87,0000       40,0000            54,02%
      0     2       44,1709   124       87,0000       40,0000      293   54,02%
Elapsed time = 0,08 sec. (37,20 ticks, tree = 0,02 MB, solutions = 7)
*  1990+ 1398                           86,0000       52,1690            39,34%
   4719  2956       73,7739   153       86,0000       63,7237   105527   25,90%

Performing restart 1

Repeating presolve.
Tried aggregator 1 time.
MIP Presolve eliminated 12 rows and 12 columns.
MIP Presolve added 6 rows and 0 columns.
MIP Presolve modified 20 coefficients.
Reduced MIP has 210 rows, 228 columns, and 850 nonzeros.
Reduced MIP has 228 binaries, 0 generals, 0 SOSs, and 0 indicators.
Presolve time = 0,00 sec. (0,98 ticks)
Tried aggregator 1 time.
Reduced MIP has 210 rows, 228 columns, and 850 nonzeros.
Reduced MIP has 228 binaries, 0 generals, 0 SOSs, and 0 indicators.
Presolve time = 0,00 sec. (0,91 ticks)
Represolve time = 0,01 sec. (4,91 ticks)
   4775     0       46,2625   228       86,0000       Cuts: 4   127366   24,73%
   4775     0       47,2461   228       86,0000       Cuts: 6   127403   24,73%
   4775     0       47,7184   228       86,0000       Cuts: 6   127458   24,73%
   4775     0       48,0398   228       86,0000      Cuts: 15   127547   24,73%
   4778     3       48,5490   225       86,0000       64,7349   127674   24,73%
   6689  1194       80,5927   106       86,0000       64,7349   171269   24,73%
   9896  3935       80,1040   102       86,0000       64,7349   243474   24,73%
* 10225+ 4040                           85,0000       64,7349            23,84%

Performing restart 2

Repeating presolve.
Tried aggregator 1 time.
Reduced MIP has 210 rows, 228 columns, and 850 nonzeros.
Reduced MIP has 228 binaries, 0 generals, 0 SOSs, and 0 indicators.
Presolve time = 0,00 sec. (0,73 ticks)
Tried aggregator 1 time.
Reduced MIP has 210 rows, 228 columns, and 850 nonzeros.
Reduced MIP has 228 binaries, 0 generals, 0 SOSs, and 0 indicators.
Presolve time = 0,00 sec. (0,91 ticks)
Represolve time = 0,02 sec. (11,17 ticks)
  11181     0       48,9877   228       85,0000       Cuts: 5   282838   23,84%
  11181     0       49,1883   228       85,0000       Cuts: 6   282905   23,84%
  11181     0       49,2925   228       85,0000       Cuts: 6   282967   23,84%
  11181     0       49,4252   228       85,0000       Cuts: 5   283067   23,84%
  11181     0       49,7488   228       85,0000      Cuts: 11   283182   23,84%
  11181     0       49,8354   228       85,0000      Cuts: 18   283252   23,84%
  11181     2       49,8354   228       85,0000       64,7349   283252   23,84%
  15037  2769       80,4372    72       85,0000       64,7349   363695   23,84%
  18442  4504        cutoff             85,0000       70,8079   450400   16,70%
* 18723+ 4649                           83,0000       70,9151            14,56%
  21630  4365       81,5883   126       83,0000       73,9061   557416   10,96%
  24962  4325       81,6315   126       83,0000       76,7791   654356    7,50%

Clique cuts applied:  40
Cover cuts applied:  376
Flow cuts applied:  1
Mixed integer rounding cuts applied:  14
Zero-half cuts applied:  7
Gomory fractional cuts applied:  36

Root node processing (before b&c):
  Real time             =    0,08 sec. (37,11 ticks)
Parallel b&c, 16 threads:
  Real time             =    3,37 sec. (2561,50 ticks)
  Sync time (average)   =    0,95 sec.
  Wait time (average)   =    0,02 sec.
                          ------------
Total (root+branch&cut) =    3,45 sec. (2598,61 ticks)
